CPXPARAM_MIP_Tolerances_MIPGap                   0
Tried aggregator 1 time.
MIP Presolve eliminated 87 rows and 3 columns.
MIP Presolve modified 182 coefficients.
Reduced MIP has 363 rows, 232 columns, and 998 nonzeros.
Reduced MIP has 148 binaries, 0 generals, 0 SOSs, and 0 indicators.
Presolve time = 0.00 sec. (0.80 ticks)
Found incumbent of value 15.000000 after 0.02 sec. (1.96 ticks)
Probing time = 0.00 sec. (1.25 ticks)
Tried aggregator 1 time.
Reduced MIP has 363 rows, 232 columns, and 998 nonzeros.
Reduced MIP has 148 binaries, 0 generals, 0 SOSs, and 0 indicators.
Presolve time = 0.00 sec. (0.58 ticks)
Probing time = 0.00 sec. (0.98 ticks)
Clique table members: 304.
MIP emphasis: balance optimality and feasibility.
MIP search method: dynamic search.
Parallel mode: deterministic, using up to 8 threads.
Root relaxation solution time = 0.00 sec. (0.94 ticks)

        Nodes                                         Cuts/
   Node  Left     Objective  IInf  Best Integer    Best Bound    ItCnt     Gap

*     0+    0                           15.0000        3.0000            80.00%
*     0+    0                           12.0000        3.0000            75.00%
      0     0        3.0000     5       12.0000        3.0000       55   75.00%
      0     0        5.0000     6       12.0000      Cuts: 44      101   58.33%
*     0+    0                            6.0000        5.0000            16.67%
*     0+    0                            5.0000        5.0000             0.00%
      0     0        cutoff              5.0000        5.0000      104    0.00%
Elapsed time = 0.11 sec. (9.16 ticks, tree = 0.01 MB, solutions = 4)

Clique cuts applied:  7
Implied bound cuts applied:  9
Mixed integer rounding cuts applied:  4

Root node processing (before b&c):
  Real time             =    0.11 sec. (9.18 ticks)
Parallel b&c, 8 threads:
  Real time             =    0.00 sec. (0.00 ticks)
  Sync time (average)   =    0.00 sec.
  Wait time (average)   =    0.00 sec.
                          ------------
Total (root+branch&cut) =    0.11 sec. (9.18 ticks)
